 Li F
   1.0
     3.9953003300000001    0.0000000000000000    0.0000000000000000
     0.0000000000000000    3.9953003300000001    0.0000000000000000
     0.0000000000000000    0.0000000000000000    3.9953003300000001
 Li F
   4   4
Direct
   0.0000000000000000  0.0000000000000000  0.0000000000000000
   0.0000000000000000  0.5000000000000000  0.5000000000000000
   0.5000000000000000  0.0000000000000000  0.5000000000000000
   0.5000000000000000  0.5000000000000000  0.0000000000000000
   0.5000000000000000  0.0000000000000000  0.0000000000000000
   0.5000000000000000  0.5000000000000000  0.5000000000000000
   0.0000000000000000  0.0000000000000000  0.5000000000000000
   0.0000000000000000  0.5000000000000000  0.0000000000000000